c --- [ banner ] -------------------------------------------------------------
c 
c CaDiCaL Radically Simplified CDCL SAT Solver
c Copyright (c) 2016-2021 A. Biere, M. Fleury, N. Froleyks
c 
c Version 1.5.2 a5f15211db36c3956764e18194dd5bd63bf3b5e6
c g++ (GCC) 9.3.0 -Wall -Wextra -O3 -DNDEBUG
c Fri Oct 21 01:27:37 EDT 2022 Linux gra-login3 3.10.0-1160.66.1.el7.x86_64 x86_64
c 
c --- [ limit ] --------------------------------------------------------------
c 
c setting conflict limit to 200000 conflicts (due to '200000')
c 
c --- [ parsing input ] ------------------------------------------------------
c 
c reading DIMACS file from '45.cubes46.adj'
c opening file to read '45.cubes46.adj'
c found 'p cnf 6160 1595481' header
c parsed 1595481 clauses in 15.93 seconds process time
c closing file '45.cubes46.adj'
c after reading 1457566819 bytes 1390.0 MB
c 
c --- [ options ] ------------------------------------------------------------
c 
c all options are set to their default value
c 
c --- [ solving ] ------------------------------------------------------------
c 
c time measured in process time since initialization
c 
c  seconds    reductions  redundant   irredundant
c          MB     restarts       trail       variables
c            level   conflicts       glue         remaining
c 
c * 15.93 1392  0 0   0    0    0  0% 0 1595422 2239 36%
c { 17.09 1456  0 0   0    0    0  0% 0 1595422 2239 36%
c i 18.10 1487 1232 0   0   26   24 47% 14 1595422 2238 36%
c i 18.14 1487 1230 0   0   27   24 47% 13 1595422 2235 36%
c i 18.99 1494 870 0   8  124  109 41% 13 1595422 2234 36%
c i 19.10 1497 832 0  10  130  114 41% 14 1595422 2233 36%
c i 19.10 1497 825 0  10  131  114 40% 14 1595422 2232 36%
c i 19.73 1502 725 0  16  151  129 39% 14 1595422 2231 36%
c i 20.41 1508 640 0  21  174  151 37% 19 1595422 2230 36%
c i 20.46 1508 637 0  22  175  151 37% 19 1595422 2229 36%
c i 20.47 1508 633 0  22  176  151 37% 19 1595422 2228 36%
c i 20.56 1509 614 0  23  182  156 37% 19 1595422 2227 36%
c i 20.74 1510 582 0  26  195  166 37% 20 1595422 2226 36%
c i 20.74 1510 579 0  26  196  166 36% 20 1595422 2225 36%
c i 20.98 1513 553 0  29  206  175 36% 20 1595422 2224 36%
c i 22.16 1520 466 0  41  255  218 34% 24 1595422 2223 36%
c i 22.26 1521 451 0  43  267  228 34% 26 1595422 2217 36%
c i 22.47 1521 443 0  45  273  233 34% 26 1595422 2214 36%
c i 23.03 1523 410 0  52  304  259 33% 28 1595422 2213 36%
c - 26.56 1475 410 1  53  304  259 33% 28 382652 2213 36%
c 
c  seconds     reductions  redundant   irredundant
c          MB      restarts       trail       variables
c             level   conflicts       glue         remaining
c 
c i 26.68 1440 406 1  53  308  262 33% 28 382652 2212 36%
c i 27.11 1440 367 1  66  350  300 32% 29 382652 2211 36%
c i 27.14 1440 364 1  68  354  302 32% 29 382652 2210 36%
c i 27.29 1440 351 1  72  375  316 32% 30 382652 2208 36%
c i 27.30 1440 348 1  73  378  318 32% 30 382652 2207 36%
c i 27.40 1440 339 1  76  391  329 32% 30 382652 2206 36%
c i 27.80 1441 322 1  84  419  356 32% 32 382652 2205 36%
c i 27.92 1441 311 1  89  440  372 31% 31 382652 2204 36%
c i 28.42 1441 293 1  95  479  408 31% 32 382652 2203 36%
c i 28.74 1442 250 1 101  580  502 31% 32 382652 2202 36%
c i 28.88 1442 209 1 101  725  624 30% 31 382652 2201 36%
c i 29.01 1442 201 1 106  770  665 30% 32 382652 2200 36%
c i 30.00 1366 180 1 121  921  803 30% 32 382652 2199 36%
c } 30.10 1366 169 1 121 1001  873 30% 31 382652 2199 36%
c [ 30.10 1366  0 1 121 1001  873  0% 0 382652 2199 36%
c O 30.12 1366  2 1 121 1002  874 16% 1 382652 2199 36%
c i 30.14 1366  2 1 121 1009  878 16% 1 382652 2181 35%
c i 30.14 1366  2 1 121 1010  878 16% 1 382652 2152 35%
c - 31.43 1515 32 2 121 1253  944 31% 24 381935 2152 35%
c i 31.67 1515 32 2 121 1310  988 31% 24 381935 2151 35%
c 
c  seconds    reductions  redundant   irredundant
c          MB     restarts       trail       variables
c            level   conflicts       glue         remaining
c 
c i 31.89 1515 30 2 121 1590 1129 31% 25 381935 2150 35%
c - 32.86 1514 30 3 122 2677 1258 31% 26 381929 2150 35%
c ] 33.37 1514 29 3 122 3002 1454 49% 26 381929 2150 35%
c { 33.37 1514 169 3 122 3002 1454 86% 31 381929 2150 35%
c F 33.40 1514 169 3 122 3003 1455 86% 31 381929 2150 35%
c i 33.58 1514 166 3 122 3022 1473 85% 31 381929 2149 35%
c i 33.68 1514 160 3 122 3075 1511 83% 31 381929 2148 35%
c i 34.03 1514 95 3 122 4029 2214 66% 25 381929 2147 35%
c - 34.48 1513 78 4 122 4575 1913 62% 22 381920 2147 35%
c i 36.06 1513 76 4 176 4892 2180 60% 23 381920 2146 35%
c i 36.12 1513 76 4 184 4922 2208 60% 24 381920 2145 35%
c i 36.32 1513 76 4 191 4958 2236 60% 24 381920 2144 35%
c 2 37.07 1513 76 4 202 5001 3030 60% 24 381895 2136 35%
c p 40.75 1513 76 4 202 5001 5194 60% 24 381895 2079 34%
c d 41.31 1513 76 4 202 5001 5105 60% 24 381559 2076 34%
c # 46.33 1513 70 4 338 6004 5929 56% 26 381559 2076 34%
c - 48.39 1368 63 5 344 6948 3086 54% 25 381559 2076 34%
c } 48.45 1368 63 5 344 7002 3133 54% 25 381559 2076 34%
c [ 48.45 1368 29 5 344 7002 3133 49% 26 381559 2076 34%
c - 51.02 1369 27 6 346 9795 3367 48% 23 381559 2076 34%
c 
c  seconds    reductions   redundant   irredundant
c          MB     restarts        trail       variables
c            level    conflicts       glue         remaining
c 
c I 51.24 1369 27 6 346 10006 3487 48% 23 381559 2076 34%
c - 55.62 1369 34 7 348 13117 4050 47% 28 381559 2076 34%
c ] 57.40 1369 36 7 349 15003 5423 47% 29 381559 2076 34%
c { 57.40 1369 63 7 349 15003 5423 54% 25 381559 2076 34%
c 2 57.46 1369 63 7 349 15003 6283 54% 25 381559 2076 34%
c p 60.79 1369 63 7 349 15003 8720 54% 25 381559 2075 34%
c B 60.98 1369 63 7 349 15010 8727 54% 25 381559 2075 34%
c - 64.00 1369 53 8 408 16912 4973 52% 23 381556 2075 34%
c s 67.50 1369 46 8 483 18954 6273 50% 22 379487 2075 34%
c v 73.93 1369 46 8 483 18954 6273 50% 22 379467 2075 34%
c t 74.12 1369 46 8 483 18954 6262 50% 22 379456 2075 34%
c e 74.89 1371 46 8 483 18954 5878 50% 22 377340 837 14%
c s 75.01 1371 46 8 483 18954 5877 50% 22 375972 837 14%
c W 78.05 1371 41 8 493 21012 7205 63% 20 375972 837 14%
c - 78.50 1371 41 9 522 21184 5254 63% 20 375972 837 14%
c - 86.03 1371 36 10 703 25911 6128 65% 20 375972 837 14%
c F 86.90 1371 34 10 703 28018 7312 65% 19 375972 837 14%
c p 99.47 1371 35 10 1003 30006 10787 65% 20 375972 837 14%
c } 102.10 1371 35 10 1029 31007 11506 65% 20 375972 837 14%
c [ 102.10 1371 36 10 1029 31007 11506 121% 29 375972 837 14%
c 
c  seconds     reductions     redundant    irredundant
c           MB      restarts         trail        variables
c             level      conflicts        glue        remaining
c 
c - 102.33 1371 35 11 1029 31110 7041 120% 29 375972 837 14%
c B 106.12 1371 31 11 1032 36019 10307 99% 26 375972 837 14%
c - 106.76 1371 32 12 1032 36781 7667 97% 27 375972 837 14%
c - 109.45 1371 33 13 1036 42924 8370 87% 28 375972 837 14%
c W 111.65 1371 32 13 1036 45021 9868 84% 27 375972 837 14%
c - 113.32 1371 32 14 1037 49541 8668 81% 27 375972 837 14%
c p 114.92 1371 32 14 1037 50009 11075 80% 27 375972 837 14%
c O 117.11 1371 31 14 1038 55025 14119 77% 26 375972 837 14%
c - 117.88 1372 30 15 1040 56629 9210 77% 26 375972 837 14%
c ] 120.91 1372 30 15 1044 63010 13080 74% 26 375972 837 14%
c { 120.91 1372 35 15 1044 63010 13080 65% 20 375972 837 14%
c - 121.59 1372 34 16 1085 64190 9660 65% 20 375972 837 14%
c B 122.05 1372 32 16 1085 66029 10585 64% 19 375972 837 14%
c - 141.25 1372 32 17 1617 72224 10867 64% 20 375972 837 14%
c p 149.55 1372 32 17 1811 75009 15125 64% 20 375972 837 14%
c W 153.55 1372 31 17 1917 78032 17188 65% 20 375972 837 14%
c - 155.18 1372 30 18 1920 80731 12161 65% 20 375972 837 14%
c - 164.96 1372 29 19 2150 89709 13141 65% 19 375972 837 14%
c # 165.78 1372 28 19 2187 91033 13893 65% 19 375972 837 14%
c - 179.71 1372 27 20 2510 99159 13790 65% 18 375972 837 14%
c 
c  seconds     reductions       redundant   irredundant
c           MB      restarts           trail       variables
c             level      conflicts         glue        remaining
c 
c p 185.51 1372 26 20 2630 105011 19902 65% 18 375972 837 14%
c B 185.82 1372 26 20 2634 105034 19921 65% 18 375972 837 14%
c - 187.76 1372 26 21 2709 109083 13996 65% 18 375972 837 14%
c - 196.14 1372 24 22 2929 119479 14295 65% 17 375972 837 14%
c W 198.71 1372 24 22 2934 120035 14582 65% 17 375972 837 14%
c } 212.31 1372 24 22 3505 127011 19401 65% 17 375972 837 14%
c [ 212.31 1372 30 22 3505 127011 19401 74% 26 375972 837 14%
c - 213.78 1372 29 23 3505 130349 15627 74% 25 375972 837 14%
c ] 215.10 1372 28 23 3508 133016 17307 74% 24 375972 837 14%
c 1 215.10 1372 28 23 3508 133016 17307 74% 24 375972 837 14%
c 
c --- [ writing output ] -----------------------------------------------------
c 
c writing simplified CNF to DIMACS file 'simp/45.cubes46.adj.simp1'
c * 215.10 1372 28 23 3508 133016 17307 74% 24 375972 837 14%
c opening file to write 'simp/45.cubes46.adj.simp1'
c writing 'p cnf 6160 375972' header
c closing file 'simp/45.cubes46.adj.simp1'
c after writing 154300782 bytes 147.2 MB
c wrote 375972 clauses in 0.92 seconds process time
c 
c --- [ writing extension ] --------------------------------------------------
c 
c writing extension stack to 'simp/45.cubes46.adj.ext1'
c opening file to write 'simp/45.cubes46.adj.ext1'
c closing file 'simp/45.cubes46.adj.ext1'
c after writing 83014 bytes 0.1 MB
c wrote 3764 witnesses in 0.00 seconds process time
c 
c --- [ result ] -------------------------------------------------------------
c 
s SATISFIABLE
c 
c --- [ run-time profiling ] -------------------------------------------------
c 
c process time taken by individual solving procedures
c (percentage relative to process time for solving)
c 
c       175.43   88.08% search
c       138.74   69.66% unstable
c        30.98   15.56% stable
c        23.75   11.92% simplify
c        15.93    8.00% parse
c        13.84    6.95% probe
c         6.58    3.30% vivify
c         4.54    2.28% walk
c         1.43    0.72% elim
c         1.17    0.59% lucky
c         0.25    0.12% ternary
c         0.23    0.12% subsume
c   =================================
c       199.17   92.20% solve
c 
c last line shows process time for solving
c (percentage relative to total process time)
c 
c --- [ statistics ] ---------------------------------------------------------
c 
c chronological:             25196        18.94 %  of conflicts
c conflicts:                133016       667.84    per second
c decisions:                306166      1537.17    per second
c eliminated:                 1238        20.10 %  of all variables
c fixed:                       930        15.10 %  of all variables
c learned:                  129969        97.71 %  per conflict
c learned_lits:           18801837       100.00 %  learned literals
c minimized:                     0         0.00 %  learned literals
c shrunken:               12344992        65.66 %  learned literals
c minishrunken:            1174214         6.25 %  learned literals
c propagations:            9994389         0.05 M  per second
c reduced:                   71537        53.78 %  per conflict
c rephased:                     15      8867.73    interval
c restarts:                   3508        37.92    interval
c stabilizing:                   4        36.09 %  of conflicts
c substituted:                  11         0.18 %  of all variables
c subsumed:                  44331         1.23 %  of all clauses
c strengthened:               2965         0.08 %  of all clauses
c ternary:                    4026         0.65 %  of resolved
c vivified:                     35         0.00 %  of all clauses
c walked:                        4     33254.00    interval
c weakened:                   2834         3.09    average size
c 
c seconds are measured in process time for solving
c 
c --- [ resources ] ----------------------------------------------------------
c 
c total process time since initialization:       216.03    seconds
c total real time since initialization:          216.64    seconds
c maximum resident set size of process:         1662.56    MB
c 
c --- [ shutting down ] ------------------------------------------------------
c 
c exit 10
WARNING! DIMACS header mismatch: wrong number of variables.
============================[ Problem Statistics ]=============================
|                                                                             |
|  Number of variables:          3759                                         |
|  Number of clauses:          375972                                         |
|  Parse time:                   2.16 s                                       |
|  Simplification time:          0.07 s                                       |
|                                                                             |
============================[ Search Statistics ]====================================================
| Conflicts |          ORIGINAL         |          LEARNT          | Num Sols |      SUBGRAPHS      |
|           |    Vars  Clauses Literals |    Limit  Clauses Lit/Cl |          | Canonical Noncanon. |
=====================================================================================================
|       102 |    3658   375974 33310335 |     2000      102    188 |        0 |        12         2 |
|       256 |    3658   375978 33310459 |     2000      256    113 |        0 |        36         6 |
|       492 |    3658   375989 33310748 |     2000      492     93 |        0 |        46        17 |
|      1073 |    3658   376233 33314508 |     2000     1073     78 |        0 |        86       261 |
|      1597 |    3658   376251 33314968 |     2000     1597     81 |        0 |       100       279 |
|      2373 |    3658   376268 33315317 |     3599     1372     32 |        0 |       113       296 |
|      3624 |    3658   376380 33317878 |     3599     2623     51 |        0 |       152       408 |
|      5457 |    3658   376505 33320568 |     5001     2658     44 |        0 |       192       533 |
|      8078 |    3658   376564 33321753 |     6303     2781     31 |        0 |       222       592 |
|     12168 |    3658   376810 33327341 |     7553     3721     26 |        0 |       310       838 |
|     18086 |    3658   376962 33330380 |     8778     5864     43 |        0 |       397       990 |
|     26822 |    3658   377049 33332272 |    11204     5226     17 |        0 |       453      1077 |
|     40034 |    3658   377287 33336065 |    13606     6640     19 |        0 |       545      1315 |
|     59790 |    3658   377582 33340768 |    16005    12195     42 |        0 |       672      1610 |
|     90154 |    3658   378754 33363672 |    19608    16762     48 |        0 |      1055      2782 |
|    134475 |    3658   379286 33372836 |    24414    18289     41 |        0 |      1267      3314 |
|    200678 |    3658   379805 33383190 |    30406    17484     27 |        0 |      1520      3833 |
|    299691 |    3658   380292 33393984 |    36421    34512     52 |        0 |      1772      4320 |
|    448305 |    3658   381117 33418204 |    44818    43123     54 |        0 |      2171      5145 |
|    673345 |    3658   384474 33491128 |    55613    44958     46 |        0 |      3155      8502 |
|   1009776 |    3658   388380 33577348 |    68815    42591     34 |        0 |      4536     12408 |
|   1512206 |    3658   392022 33657029 |    84413    51019     32 |        0 |      6076     16050 |
|   2267393 |    3658   399027 33803928 |   103629    59022     30 |        1 |      8327     23054 |
|   3409870 |    3658   419230 34249780 |   126423   114693     53 |        1 |     14798     43257 |
|   5127901 |    3658   453850 35021933 |   155228   150329     49 |        1 |     23449     77877 |
|   7671470 |    3646   453699 35034397 |   191216   104886     39 |        3 |     29889     96328 |
|  11466507 |    3646   461061 35226742 |   233221   196928     50 |        3 |     32686    103690 |
|  17231839 |    3645   544792 36938600 |   286010   264249     48 |        6 |     43058    187507 |
|  25838065 |    3610   459385 34968248 |   343881   282946     43 |       16 |     55287    271454 |
=====================================================================================================
Number of solutions   : 16
Canonical subgraphs   : 55343          (4 /sec)
          order  3    : 1              (166667 /sec)
          order  4    : 1              (500000 /sec)
          order  5    : 1              (250000 /sec)
          order  6    : 1              (52632 /sec)
          order  7    : 1              (8333 /sec)
          order  8    : 1              (959 /sec)
          order  9    : 2              (141 /sec)
          order 10    : 6              (30 /sec)
          order 11    : 25             (8 /sec)
          order 12    : 117            (2 /sec)
          order 13    : 1051           (2 /sec)
          order 14    : 7816           (3 /sec)
          order 15    : 24438          (4 /sec)
          order 16    : 16046          (4 /sec)
          order 17    : 5359           (4 /sec)
          order 18    : 346            (3 /sec)
          order 19    : 51             (3 /sec)
          order 20    : 34             (4 /sec)
          order 21    : 30             (4 /sec)
          order 22    : 16             (0 /sec)
Noncanonical subgraphs: 271533         (286 /sec)
          order  3    : 0              (-nan /sec)
          order  4    : 0              (-nan /sec)
          order  5    : 0              (-nan /sec)
          order  6    : 0              (-nan /sec)
          order  7    : 0              (-nan /sec)
          order  8    : 0              (-nan /sec)
          order  9    : 0              (-nan /sec)
          order 10    : 0              (-nan /sec)
          order 11    : 0              (-nan /sec)
          order 12    : 0              (-nan /sec)
          order 13    : 2408           (15620 /sec)
          order 14    : 34057          (2789 /sec)
          order 15    : 61934          (1303 /sec)
          order 16    : 166218         (231 /sec)
          order 17    : 3593           (134 /sec)
          order 18    : 3300           (24 /sec)
          order 19    : 8              (8 /sec)
          order 20    : 0              (-nan /sec)
          order 21    : 0              (-nan /sec)
Canonicity checking   : 14602.8 s
Noncanonicity checking: 950.387 s
Total canonicity time : 15553.2 s
database reductions   : 290
restarts              : 35167
conflicts             : 25873296       (900 /sec)
decisions             : 33100449       (0.00 % random) (1151 /sec)
propagations          : 1333664975     (46376 /sec)
conflict literals     : 2156934220     (55.79 % deleted)
actual reward         : 0.237096
Memory used           : 658.00 MB
CPU time              : 28757.6 s

UNSATISFIABLE
